--- Job with_locational_instrument.gms Start 01/27/22 22:53:21 30.3.0 rc5da09e WEX-WEI x86 64bit/MS Windows
--- GAMS Parameters defined
    Input C:\Users\a.eicke\Documents\Locational-investment-signals\Two node models\with_locational_instrument.gms
    PageSize 0
    ScrDir C:\Users\a.eicke\Documents\Locational-investment-signals\Two node models\225a\
    SysDir C:\GAMS\win64\30.3\
    LogOption 3
    ErrMsg 1
    ErrorLog 99
    IDE 1
    LstTitleLeftAligned 1
GAMS 30.3.0   Copyright (C) 1987-2020 GAMS Development. All rights reserved
Licensee: Small MUD - 5 User License                     S190305:0326AO-WIN
          Hertie School of Governance GmbH, Governance of DigitalizaDC14808
--- Starting compilation
--- with_locational_instrument.gms(72) 3 Mb
--- GDXin=C:\Users\a.eicke\Documents\Locational-investment-signals\Two node models\in.gdx
--- with_locational_instrument.gms(75) 3 Mb
--- GDXin=C:\Users\a.eicke\Documents\Locational-investment-signals\Two node models\load.gdx
--- with_locational_instrument.gms(78) 3 Mb
--- GDXin=C:\Users\a.eicke\Documents\Locational-investment-signals\Two node models\avail.gdx
--- with_locational_instrument.gms(302) 3 Mb
--- Starting execution: elapsed 0:00:00.026
--- with_locational_instrument.gms(267) 4 Mb
--- Generating MIQCP model LOCI
--- with_locational_instrument.gms(270) 6 Mb
---   1,151 rows  881 columns  3,195 non-zeroes
---   202 nl-code  32 nl-non-zeroes
---   232 discrete-columns
--- with_locational_instrument.gms(270) 4 Mb
--- Executing CPLEX: elapsed 0:00:00.054

IBM ILOG CPLEX   30.3.0 rc5da09e Released Mar 06, 2020 WEI x86 64bit/MS Window
--- GAMS/Cplex licensed for continuous and discrete problems.
Cplex 12.10.0.0

The search will stop after 65000000 nodes.
Reading data...
Starting Cplex...
Space for names approximately 0.06 Mb
Use option 'names no' to turn use of names off
Version identifier: 12.10.0.0 | 2019-11-26 | 843d4de2ae
CPXPARAM_Advance                                 0
CPXPARAM_Threads                                 1
CPXPARAM_Parallel                                1
CPXPARAM_MIP_Display                             4
CPXPARAM_Simplex_Limits_Iterations               2000000000
CPXPARAM_MIP_Limits_Nodes                        65000000
CPXPARAM_TimeLimit                               150000
CPXPARAM_Tune_TimeLimit                          30000
CPXPARAM_MIP_Tolerances_AbsMIPGap                0
CPXPARAM_WorkDir                                 "C:\Users\a.eicke\Documents\Locational-investment-signals\Two node models\225a\"
Tried aggregator 2 times.
MIQP Presolve eliminated 388 rows and 116 columns.
MIQP Presolve modified 310 coefficients.
Aggregator did 32 substitutions.
Reduced MIQP has 731 rows, 728 columns, and 2211 nonzeros.
Reduced MIQP has 200 binaries, 0 generals, 0 SOSs, and 0 indicators.
Reduced MIQP objective Q matrix has 32 nonzeros.
Presolve time = 0.02 sec. (2.02 ticks)
Probing fixed 12 vars, tightened 163 bounds.
Probing time = 0.00 sec. (0.96 ticks)
Tried aggregator 1 time.
MIQP Presolve eliminated 24 rows and 12 columns.
MIQP Presolve modified 71 coefficients.
Reduced MIQP has 707 rows, 716 columns, and 2118 nonzeros.
Reduced MIQP has 188 binaries, 0 generals, 0 SOSs, and 0 indicators.
Reduced MIQP objective Q matrix has 32 nonzeros.
Presolve time = 0.02 sec. (0.90 ticks)
Classifier predicts products in MIQP should be linearized.
Probing fixed 4 vars, tightened 361 bounds.
Probing time = 0.00 sec. (1.38 ticks)
Clique table members: 160.
MIP emphasis: balance optimality and feasibility.
MIP search method: dynamic search.
Parallel mode: none, using 1 thread.
Tried aggregator 1 time.
QP Presolve eliminated 78 rows and 78 columns.
Aggregator did 152 substitutions.
Reduced QP has 477 rows, 486 columns, and 1605 nonzeros.
Reduced QP objective Q matrix has 32 nonzeros.
Presolve time = 0.00 sec. (0.58 ticks)
Parallel mode: none, using 1 thread for barrier

***NOTE: Found 6 dense columns.

Number of nonzeros in lower triangle of A*A' = 2291
Using Approximate Minimum Degree ordering
Total time for automatic ordering = 0.00 sec. (0.22 ticks)
Summary statistics for Cholesky factor:
  Rows in Factor            = 483
  Integer space required    = 1355
  Total non-zeros in factor = 6691
  Total FP ops to factor    = 137755
 Itn      Primal Obj        Dual Obj  Prim Inf Upper Inf  Dual Inf          
   0  -1.6912366e+08   4.7299501e+08  3.04e+05  2.37e+05  8.98e+05
   1  -4.5902878e+07   2.1386108e+08  1.59e+05  1.24e+05  4.70e+05
   2  -1.4009735e+06   3.7483861e+07  2.81e+04  2.20e+04  8.32e+04
   3   4.3812236e+04   1.0749696e+07  7.36e+03  5.74e+03  2.18e+04
   4   1.1569925e+05   7.5822438e+06  3.52e+03  2.74e+03  1.04e+04
   5   2.4080317e+05   2.6812152e+06  6.53e+02  5.09e+02  1.93e+03
   6   2.9698305e+05   6.9348927e+05  8.73e+01  6.80e+01  2.58e+02
   7   3.2662499e+05   5.2772521e+05  2.21e+01  1.72e+01  6.52e+01
   8   3.4119968e+05   4.1633787e+05  7.47e+00  5.82e+00  2.21e+01
   9   3.4549106e+05   3.7980471e+05  1.52e+00  1.19e+00  4.51e+00
  10   3.4773571e+05   3.6115363e+05  4.64e-01  3.61e-01  1.37e+00
  11   3.4874793e+05   3.5406102e+05  1.22e-01  9.48e-02  3.60e-01
  12   3.4919133e+05   3.5098874e+05  3.49e-02  2.72e-02  1.03e-01
  13   3.4932065e+05   3.4998968e+05  3.55e-03  2.76e-03  1.05e-02
  14   3.4939190e+05   3.4952092e+05  6.81e-04  5.30e-04  2.01e-03
  15   3.4940780e+05   3.4940912e+05  6.21e-06  4.83e-06  1.83e-05
  16   3.4940795e+05   3.4940796e+05  4.71e-08  3.25e-08  1.22e-07
  17   3.4940795e+05   3.4940795e+05  1.02e-07  4.92e-10  6.39e-10
  18   3.4940795e+05   3.4940795e+05  1.70e-07  3.83e-10  3.08e-11
Barrier time = 0.03 sec. (7.62 ticks)

QP crossover.
  Primal and Dual:  Fixing 309 variables.
  Primal:  Pushed 141, exchanged 135.
  Dual  :  Pushed 4, exchanged 110.
Total crossover time = 0.01 sec. (6.56 ticks)

Total time on 1 threads = 0.05 sec. (14.82 ticks)
Root relaxation solution time = 0.05 sec. (14.82 ticks)

        Nodes                                         Cuts/
   Node  Left     Objective  IInf  Best Integer    Best Bound    ItCnt     Gap

      0     0   349407.9542   129                 349407.9542       18         
      0     0   349407.9542   129                   Cuts: 276      759         
      0     0   349407.9542   129                   Cuts: 223     1090         
      0     0   349407.9542   129                   Cuts: 166     1375         
      0     0   349407.9542   129                   Cuts: 142     1667         
*     0+    0                       338891.6083   349407.9542             3.10%
Found incumbent of value 338891.608279 after 0.44 sec. (181.95 ticks)
      0     2   349407.9542    94   338891.6083   349407.9542     1667    3.10%
Elapsed time = 0.47 sec. (186.99 ticks, tree = 0.01 MB, solutions = 1)
*    60+   46                       345574.6896   349407.9542             1.11%
Found incumbent of value 345574.689551 after 0.77 sec. (305.26 ticks)
    130   105   349255.8525    27   345574.6896   349407.9542     5901    1.11%
                                                  Impl Bds: 6                  
*   200+   99                       348821.6156   349407.9542             0.17%
                                                      Cuts: 2                  
Found incumbent of value 348821.615650 after 1.27 sec. (528.89 ticks)
    293   171   349350.3721    16   348821.6156   349407.9542     8361    0.17%
                                                   MIRcuts: 1                  
*   300+  109                       349106.0886   349407.9542             0.09%
Found incumbent of value 349106.088624 after 1.72 sec. (752.94 ticks)
*   313    59      integral     0   349347.8954   349407.9542     8601    0.02%
Found incumbent of value 349347.895355 after 1.75 sec. (761.42 ticks)
*   394     1      integral     0   349407.9542   349407.9542     9306    0.00%
                                                  Impl Bds: 2                  
Found incumbent of value 349407.954234 after 1.88 sec. (832.25 ticks)

Clique cuts applied:  28
Implied bound cuts applied:  66
Flow cuts applied:  79
Mixed integer rounding cuts applied:  37
Zero-half cuts applied:  2

Root node processing (before b&c):
  Real time             =    0.47 sec. (187.00 ticks)
Sequential b&c:
  Real time             =    1.42 sec. (645.71 ticks)
                          ------------
Total (root+branch&cut) =    1.89 sec. (832.71 ticks)
MIQP status(101): integer optimal solution
Cplex Time: 1.89sec (det. 832.71 ticks)
Fixing integer variables, and solving final QP..
Version identifier: 12.10.0.0 | 2019-11-26 | 843d4de2ae
CPXPARAM_Advance                                 2
CPXPARAM_Threads                                 1
CPXPARAM_Parallel                                1
CPXPARAM_MIP_Display                             4
CPXPARAM_Simplex_Limits_Iterations               2000000000
CPXPARAM_MIP_Limits_Nodes                        65000000
CPXPARAM_TimeLimit                               150000
CPXPARAM_Tune_TimeLimit                          30000
CPXPARAM_MIP_Tolerances_AbsMIPGap                0
CPXPARAM_WorkDir                                 "C:\Users\a.eicke\Documents\Locational-investment-signals\Two node models\225a\"
Tried aggregator 1 time.
QP Presolve eliminated 851 rows and 596 columns.
Aggregator did 122 substitutions.
Reduced QP has 178 rows, 163 columns, and 618 nonzeros.
Reduced QP objective Q matrix has 32 nonzeros.
Presolve time = 0.00 sec. (0.87 ticks)
Parallel mode: none, using 1 thread for barrier

***NOTE: Found 7 dense columns.

Number of nonzeros in lower triangle of A*A' = 681
Using Approximate Minimum Degree ordering
Total time for automatic ordering = 0.00 sec. (0.04 ticks)
Summary statistics for Cholesky factor:
  Rows in Factor            = 185
  Integer space required    = 387
  Total non-zeros in factor = 1676
  Total FP ops to factor    = 22146
 Itn      Primal Obj        Dual Obj  Prim Inf Upper Inf  Dual Inf          
   0   7.5349794e+04   1.5476919e+07  3.83e+02  0.00e+00  1.89e+05
   1   1.7203400e+05   9.3611883e+06  2.15e+02  6.54e-13  1.06e+05
   2   2.7296574e+05   3.2098565e+06  5.87e+01  3.21e-13  2.90e+04
   3   3.2294577e+05   1.0683956e+06  1.19e+01  3.94e-13  5.97e+03
   4   3.3898546e+05   4.4966556e+05  1.60e+00  6.11e-13  8.14e+02
   5   3.4403449e+05   3.9282594e+05  5.91e-01  5.20e-13  3.03e+02
   6   3.4556894e+05   3.6868004e+05  5.14e-02  4.12e-13  2.64e+01
   7   3.4835834e+05   3.5448783e+05  1.23e-02  5.44e-13  7.28e+00
   8   3.4887696e+05   3.5209811e+05  5.63e-03  4.59e-13  3.34e+00
   9   3.4908132e+05   3.5066401e+05  2.32e-04  4.21e-13  1.38e-01
  10   3.4931493e+05   3.4977990e+05  6.45e-05  5.35e-13  3.84e-02
  11   3.4939330e+05   3.4946806e+05  4.22e-06  3.56e-13  2.61e-03
  12   3.4940774e+05   3.4940899e+05  4.93e-08  3.23e-13  3.93e-05
  13   3.4940795e+05   3.4940797e+05  4.33e-09  6.06e-13  3.41e-07
  14   3.4940795e+05   3.4940795e+05  7.77e-09  7.02e-13  1.60e-09
Barrier time = 0.00 sec. (2.87 ticks)

Total time on 1 threads = 0.00 sec. (2.87 ticks)
QP status(1): optimal
Cplex Time: 0.00sec (det. 2.87 ticks)

Proven optimal solution.

MIP Solution:       349407.954234    (9306 iterations, 395 nodes)
Final Solve:        349407.954217    (0 iterations)

Best possible:      349407.954234
Absolute gap:            0.000000
Relative gap:            0.000000

--- Restarting execution
--- with_locational_instrument.gms(270) 2 Mb
--- Reading solution for model LOCI
--- Executing after solve: elapsed 0:00:02.172
--- with_locational_instrument.gms(302) 3 Mb
--- GDX File C:\Users\a.eicke\Documents\Locational-investment-signals\Two node models\Output/with_instrument.gdx
*** Status: Normal completion
--- Job with_locational_instrument.gms Stop 01/27/22 22:53:24 elapsed 0:00:02.172
